smt/acc-fold/bench/smt2/append_dll_size_slk-1.smt2
(set-logic QF_S)

(declare-sort node2 0)
(declare-fun val () (Field node2 Int))
(declare-fun prev () (Field node2 node2))
(declare-fun next () (Field node2 node2))

(define-fun dll ((?in node2) (?p node2) (?n Int))
Space (tospace
(or
(and 
(= ?in nil)
(= ?n 0)

)(exists ((?p_24 node2)(?self_25 node2)(?flted_12_21 Int)(?v_22 Int)(?q_23 node2))(and 
(= (+ ?flted_12_21 1) ?n)
(= ?p_24 ?p)
(= ?self_25 ?in)
(tobool (ssep 
(pto ?in (sref (ref val ?v_22) (ref prev ?p_24) (ref next ?q_23) ))
(dll ?q_23 ?self_25 ?flted_12_21)
) )
)))))















(declare-fun n () Int)
(declare-fun self () Int)


(assert 
(and 
other(tobool (ssep 
emp
) )
)
)

(assert (not 
(and 
(<= 0 n)
other(tobool (ssep 
emp
) )
)
))

(check-sat)